p cnf 259 868
c t mc
-1 2 -3 0
1 -2 -3 0
-1 -2 3 0
1 2 3 0
-3 4 -5 0
3 -4 -5 0
-3 -4 5 0
3 4 5 0
8 -6 0
8 -7 0
6 7 -8 0
-9 2 0
-9 -8 0
-2 8 9 0
13 -11 0
13 -12 0
11 12 -13 0
-15 -13 0
-15 -14 0
13 14 15 0
-16 -10 0
-16 -15 0
10 15 16 0
-18 -17 0
-18 11 0
17 -11 18 0
-21 -19 0
-21 20 0
19 -20 21 0
-22 18 0
-22 21 0
-18 -21 22 0
-23 16 0
-23 -22 0
-16 22 23 0
24 -9 0
24 23 0
9 -23 -24 0
-25 -5 0
-25 -24 0
5 24 25 0
-6 -23 -26 0
6 23 -26 0
-6 23 26 0
6 -23 26 0
27 15 0
27 -17 0
-15 17 -27 0
28 -22 0
28 13 0
22 -13 -28 0
-29 -27 0
-29 28 0
27 -28 29 0
30 21 0
30 29 0
-21 -29 -30 0
31 26 0
31 -30 0
-26 30 -31 0
32 -4 0
32 -31 0
4 31 -32 0
33 25 0
33 32 0
-25 -32 -33 0
35 12 0
35 -12 0
-34 35 -36 0
34 -35 -36 0
-34 -35 36 0
34 35 36 0
-1 37 -38 0
1 -37 -38 0
-1 -37 38 0
1 37 38 0
13 38 -39 0
-13 -38 -39 0
13 -38 39 0
-13 38 39 0
40 36 0
40 39 0
-36 -39 -40 0
41 33 0
41 40 0
-33 -40 -41 0
42 -11 0
42 7 0
11 -7 -42 0
43 2 0
43 -3 0
-2 3 -43 0
44 -42 0
44 43 0
42 -43 -44 0
-46 37 0
-46 45 0
-37 -45 46 0
47 44 0
47 -46 0
-44 46 -47 0
17 -42 -48 0
-17 42 -48 0
17 42 48 0
-17 -42 48 0
18 10 -49 0
-18 -10 -49 0
18 -10 49 0
-18 10 49 0
-50 -48 0
-50 -49 0
48 49 50 0
-51 -47 0
-51 -50 0
47 50 51 0
18 -2 -52 0
-18 2 -52 0
18 2 52 0
-18 -2 52 0
52 42 -53 0
-52 -42 -53 0
52 -42 53 0
-52 42 53 0
55 54 0
55 -11 0
-54 11 -55 0
-56 -55 0
-56 -26 0
55 26 56 0
58 57 0
58 -8 0
-57 8 -58 0
59 1 0
59 -1 0
-6 -59 -60 0
6 59 -60 0
-6 59 60 0
6 -59 60 0
-58 -60 -61 0
58 60 -61 0
-58 60 61 0
58 -60 61 0
62 12 0
62 54 0
-12 -54 -62 0
-63 -62 0
-63 -8 0
62 8 63 0
-64 -61 0
-64 63 0
61 -63 64 0
-65 64 0
-65 45 0
-64 -45 65 0
66 -65 0
66 -24 0
65 24 -66 0
-67 -56 0
-67 66 0
56 -66 67 0
68 67 0
68 35 0
-67 -35 -68 0
69 -8 0
69 -6 0
8 6 -69 0
70 -14 0
70 -2 0
14 2 -70 0
-71 -69 0
-71 70 0
69 -70 71 0
-72 1 0
-72 -42 0
-1 42 72 0
72 -19 -73 0
-72 19 -73 0
72 19 73 0
-72 -19 73 0
-74 -15 0
-74 73 0
15 -73 74 0
-75 -37 0
-75 -45 0
37 45 75 0
75 45 -76 0
-75 -45 -76 0
75 -45 76 0
-75 45 76 0
77 74 0
77 76 0
-74 -76 -77 0
-6 -24 -78 0
6 24 -78 0
-6 24 78 0
6 -24 78 0
79 -49 0
79 42 0
49 -42 -79 0
80 79 0
80 -22 0
-79 22 -80 0
-9 -1 -81 0
9 1 -81 0
-9 1 81 0
9 -1 81 0
82 58 0
82 -81 0
-58 81 -82 0
83 -80 0
83 82 0
80 -82 -83 0
84 -18 0
84 -83 0
18 83 -84 0
85 -78 0
85 84 0
78 -84 -85 0
86 77 0
86 85 0
-77 -85 -86 0
-71 -86 -87 0
71 86 -87 0
-71 86 87 0
71 -86 87 0
-88 68 0
-88 87 0
-68 -87 88 0
-53 88 -89 0
53 -88 -89 0
-53 -88 89 0
53 88 89 0
-90 -1 0
-90 -10 0
1 10 90 0
-91 89 0
-91 -90 0
-89 90 91 0
92 51 0
92 91 0
-51 -91 -92 0
-93 41 0
-93 92 0
-41 -92 93 0
43 74 -94 0
-43 -74 -94 0
43 -74 94 0
-43 74 94 0
95 -56 0
95 63 0
56 -63 -95 0
-96 -4 0
-96 17 0
4 -17 96 0
-95 -96 -97 0
95 96 -97 0
-95 96 97 0
95 -96 97 0
98 8 0
98 37 0
-8 -37 -98 0
98 24 -99 0
-98 -24 -99 0
98 -24 99 0
-98 24 99 0
-100 97 0
-100 -99 0
-97 99 100 0
-54 101 -102 0
54 -101 -102 0
-54 -101 102 0
54 101 102 0
-2 -102 -103 0
2 102 -103 0
-2 102 103 0
2 -102 103 0
104 58 0
104 11 0
-58 -11 -104 0
-105 -38 0
-105 -17 0
38 17 105 0
106 104 0
106 105 0
-104 -105 -106 0
-103 -106 -107 0
103 106 -107 0
-103 106 107 0
103 -106 107 0
100 107 -108 0
-100 -107 -108 0
100 -107 108 0
-100 107 108 0
109 -94 0
109 108 0
94 -108 -109 0
-110 -93 0
-110 109 0
93 -109 110 0
112 -45 0
112 -10 0
45 10 -112 0
-113 49 0
-113 112 0
-49 -112 113 0
114 -111 0
114 -113 0
111 113 -114 0
-115 -114 0
-115 -1 0
114 1 115 0
19 43 -116 0
-19 -43 -116 0
19 -43 116 0
-19 43 116 0
-81 -19 -117 0
81 19 -117 0
-81 19 117 0
81 -19 117 0
-117 113 -118 0
117 -113 -118 0
-117 -113 118 0
117 113 118 0
-119 116 0
-119 -118 0
-116 118 119 0
-120 -115 0
-120 -119 0
115 119 120 0
121 83 0
121 60 0
-83 -60 -121 0
9 10 -122 0
-9 -10 -122 0
9 -10 122 0
-9 10 122 0
122 15 -123 0
-122 -15 -123 0
122 -15 123 0
-122 15 123 0
-124 123 0
-124 -102 0
-123 102 124 0
-125 -121 0
-125 -124 0
121 124 125 0
-126 120 0
-126 -125 0
-120 125 126 0
-127 -74 0
-127 -84 0
74 84 127 0
128 -127 0
128 -104 0
127 104 -128 0
16 20 -129 0
-16 -20 -129 0
16 -20 129 0
-16 20 129 0
130 -128 0
130 -129 0
128 129 -130 0
-131 126 0
-131 130 0
-126 -130 131 0
-132 34 0
-132 -38 0
-34 38 132 0
95 105 -133 0
-95 -105 -133 0
95 -105 133 0
-95 105 133 0
-134 -133 0
-134 52 0
133 -52 134 0
-135 -132 0
-135 -134 0
132 134 135 0
136 -49 0
136 9 0
49 -9 -136 0
-137 136 0
-137 35 0
-136 -35 137 0
104 -137 -138 0
-104 137 -138 0
104 137 138 0
-104 -137 138 0
-139 -135 0
-139 -138 0
135 138 139 0
140 -20 0
140 -5 0
20 5 -140 0
69 140 -141 0
-69 -140 -141 0
69 -140 141 0
-69 140 141 0
-142 -139 0
-142 -141 0
139 141 142 0
143 -8 0
143 54 0
8 -54 -143 0
144 -143 0
144 57 0
143 -57 -144 0
-145 43 0
-145 144 0
-43 -144 145 0
-122 -18 -146 0
122 18 -146 0
-122 18 146 0
122 -18 146 0
-147 -102 0
-147 -55 0
102 55 147 0
148 -146 0
148 147 0
146 -147 -148 0
-149 -80 0
-149 9 0
80 -9 149 0
150 -113 0
150 -30 0
113 30 -150 0
151 37 0
151 79 0
-37 -79 -151 0
-152 150 0
-152 151 0
-150 -151 152 0
153 -149 0
153 152 0
149 -152 -153 0
154 148 0
154 153 0
-148 -153 -154 0
155 145 0
155 -154 0
-145 154 -155 0
156 142 0
156 -155 0
-142 155 -156 0
-157 -131 0
-157 156 0
131 -156 157 0
-158 5 0
-158 15 0
-5 -15 158 0
8 -102 -159 0
-8 102 -159 0
8 102 159 0
-8 -102 159 0
158 -159 -160 0
-158 159 -160 0
158 159 160 0
-158 -159 160 0
161 -157 0
161 160 0
157 -160 -161 0
-162 12 0
-162 3 0
-12 -3 162 0
-162 58 -163 0
162 -58 -163 0
-162 -58 163 0
162 58 163 0
22 9 -164 0
-22 -9 -164 0
22 -9 164 0
-22 9 164 0
-163 164 -165 0
163 -164 -165 0
-163 -164 165 0
163 164 165 0
-140 -121 -166 0
140 121 -166 0
-140 121 166 0
140 -121 166 0
114 146 -167 0
-114 -146 -167 0
114 -146 167 0
-114 146 167 0
-168 69 0
-168 -167 0
-69 167 168 0
-169 -96 0
-169 82 0
96 -82 169 0
-61 95 -170 0
61 -95 -170 0
-61 -95 170 0
61 95 170 0
-169 -170 -171 0
169 170 -171 0
-169 170 171 0
169 -170 171 0
-172 -171 0
-172 -21 0
171 21 172 0
-173 48 0
-173 172 0
-48 -172 173 0
174 168 0
174 173 0
-168 -173 -174 0
-175 -4 0
-175 49 0
4 -49 175 0
18 112 -176 0
-18 -112 -176 0
18 -112 176 0
-18 112 176 0
-176 -74 -177 0
176 74 -177 0
-176 74 177 0
176 -74 177 0
-178 -54 0
-178 177 0
54 -177 178 0
-175 -178 -179 0
175 178 -179 0
-175 178 179 0
175 -178 179 0
-174 179 -180 0
174 -179 -180 0
-174 -179 180 0
174 179 180 0
181 117 0
181 -43 0
-117 43 -181 0
-182 -180 0
-182 181 0
180 -181 182 0
-111 -183 0
111 -183 0
-10 76 -184 0
10 -76 -184 0
-10 -76 184 0
10 76 184 0
183 184 -185 0
-183 -184 -185 0
183 -184 185 0
-183 184 185 0
-185 60 -186 0
185 -60 -186 0
-185 -60 186 0
185 60 186 0
-187 186 0
-187 -114 0
-186 114 187 0
188 140 0
188 -187 0
-140 187 -188 0
-189 136 0
-189 30 0
-136 -30 189 0
-114 -37 -190 0
114 37 -190 0
-114 37 190 0
114 -37 190 0
189 190 -191 0
-189 -190 -191 0
189 -190 191 0
-189 190 191 0
-192 -35 0
-192 191 0
35 -191 192 0
-193 -188 0
-193 -192 0
188 192 193 0
-194 49 0
-194 104 0
-49 -104 194 0
-193 194 -195 0
193 -194 -195 0
-193 -194 195 0
193 194 195 0
-182 195 -196 0
182 -195 -196 0
-182 -195 196 0
182 195 196 0
166 -196 -197 0
-166 196 -197 0
166 196 197 0
-166 -196 197 0
24 -55 -198 0
-24 55 -198 0
24 55 198 0
-24 -55 198 0
199 198 0
199 67 0
-198 -67 -199 0
200 197 0
200 -199 0
-197 199 -200 0
165 200 -201 0
-165 -200 -201 0
165 -200 201 0
-165 200 201 0
161 201 -202 0
-161 -201 -202 0
161 -201 202 0
-161 201 202 0
203 -185 0
203 -28 0
185 28 -203 0
204 -203 0
204 -76 0
203 76 -204 0
52 -49 -205 0
-52 49 -205 0
52 49 205 0
-52 -49 205 0
206 204 0
206 205 0
-204 -205 -206 0
56 -84 -207 0
-56 84 -207 0
56 84 207 0
-56 -84 207 0
208 -206 0
208 -207 0
206 207 -208 0
209 -52 0
209 -198 0
52 198 -209 0
-210 -58 0
-210 209 0
58 -209 210 0
-211 -113 0
-211 -190 0
113 190 211 0
210 -211 -212 0
-210 211 -212 0
210 211 212 0
-210 -211 212 0
-213 -208 0
-213 212 0
208 -212 213 0
214 -20 0
214 1 0
20 -1 -214 0
215 -62 0
215 -98 0
62 98 -215 0
111 215 -216 0
-111 -215 -216 0
111 -215 216 0
-111 215 216 0
-217 214 0
-217 216 0
-214 -216 217 0
57 -58 -218 0
-57 58 -218 0
57 58 218 0
-57 -58 218 0
-143 62 -219 0
143 -62 -219 0
-143 -62 219 0
143 62 219 0
218 -219 -220 0
-218 219 -220 0
218 219 220 0
-218 -219 220 0
-221 217 0
-221 220 0
-217 -220 221 0
-222 213 0
-222 -221 0
-213 221 222 0
2 -23 -223 0
-2 23 -223 0
2 23 223 0
-2 -23 223 0
63 -31 -224 0
-63 31 -224 0
63 31 224 0
-63 -31 224 0
225 -75 0
225 117 0
75 -117 -225 0
177 225 -226 0
-177 -225 -226 0
177 -225 226 0
-177 225 226 0
-227 -224 0
-227 -226 0
224 226 227 0
-228 -223 0
-228 227 0
223 -227 228 0
229 -183 0
229 -96 0
183 96 -229 0
230 228 0
230 -229 0
-228 229 -230 0
-231 -176 0
-231 143 0
176 -143 231 0
230 231 -232 0
-230 -231 -232 0
230 -231 232 0
-230 231 232 0
233 -222 0
233 232 0
222 -232 -233 0
234 48 -235 0
-234 -48 -235 0
234 -48 235 0
-234 48 235 0
-236 -75 0
-236 83 0
75 -83 236 0
237 6 0
237 22 0
-6 -22 -237 0
-238 -236 0
-238 -237 0
236 237 238 0
239 235 0
239 -238 0
-235 238 -239 0
-240 -198 0
-240 190 0
198 -190 240 0
242 -240 0
242 -241 0
240 241 -242 0
-13 -111 -243 0
13 111 -243 0
-13 111 243 0
13 -111 243 0
244 -98 0
244 -38 0
98 38 -244 0
-245 -243 0
-245 -244 0
243 244 245 0
-246 -242 0
-246 245 0
242 -245 246 0
247 -239 0
247 246 0
239 -246 -247 0
-248 97 0
-248 -73 0
-97 73 248 0
-249 64 0
-249 -113 0
-64 113 249 0
248 249 -250 0
-248 -249 -250 0
248 -249 250 0
-248 249 250 0
57 237 -251 0
-57 -237 -251 0
57 -237 251 0
-57 237 251 0
102 45 -252 0
-102 -45 -252 0
102 -45 252 0
-102 45 252 0
253 -252 0
253 -17 0
252 17 -253 0
-251 253 -254 0
251 -253 -254 0
-251 -253 254 0
251 253 254 0
255 250 0
255 254 0
-250 -254 -255 0
247 255 -256 0
-247 -255 -256 0
247 -255 256 0
-247 255 256 0
257 233 0
257 -256 0
-233 256 -257 0
258 -202 0
258 -257 0
202 257 -258 0
-259 -110 0
-259 -258 0
110 258 259 0
-162 -150 28 108 -225 -163 0
34 64 -126 238 -48 0
-251 55 5 137 -31 237 33 -246 123 79 0
113 -170 -119 -61 -204 11 0
-92 138 34 196 0
163 13 0
177 -224 212 -190 111 259 92 139 226 0
163 -218 34 -94 0
-152 172 -90 0
-167 110 -124 0
231 -255 121 -216 -235 52 72 -213 -144 -28 0
256 -13 -140 176 -171 -137 -128 134 0
-228 227 -2 0
240 13 147 48 110 64 128 -251 -124 -24 0
-212 175 -69 240 -243 142 -120 -238 -23 0
40 -255 -229 -18 -84 -181 -75 115 -254 0
-199 106 161 110 -256 -145 -254 138 0
-157 198 0
-92 -76 -105 6 -258 -167 156 -179 160 0
147 57 172 126 98 -196 -231 41 0
-115 221 140 -162 150 0
192 -158 82 -143 256 -160 -115 -245 196 0
258 48 -45 -153 134 0
18 -230 212 0
32 -72 57 -204 -140 182 121 -147 194 0
-210 -11 244 56 23 -243 102 29 0
51 215 0
126 -63 110 -232 -238 0
2 188 0
239 214 258 70 6 208 213 141 -241 0
-206 -88 106 -78 232 223 0
-50 -229 139 -146 0
188 61 227 -126 0
-15 -139 206 152 0
-150 -149 29 -233 -242 40 -137 0
-181 -118 0
155 -98 143 212 -4 160 0
-100 -109 62 98 -222 -251 -256 0
-96 182 -50 -108 -97 228 0
51 90 139 240 174 187 120 -111 0
-198 -163 -177 0
47 -238 123 133 31 -88 0
-158 -258 0
135 251 224 102 -214 -162 -155 171 41 0
-46 156 -240 -42 -15 -7 74 123 0
-98 80 0
-135 173 -191 -163 74 121 -4 -141 -17 0
163 73 11 -96 0
-133 114 240 149 20 142 258 0
-10 -41 -18 0
29 -61 22 0
68 128 238 216 -63 -131 206 43 0
-20 -158 -187 0
241 64 83 -158 200 216 -105 0
-198 76 -24 56 -74 46 -171 -167 -113 0
257 -171 157 -44 0
54 -163 98 113 129 95 -61 -79 130 -165 0
-146 -112 107 -151 2 -150 86 0
140 120 50 0
-124 -100 -32 197 -97 0
24 62 -120 156 153 233 -203 0
-157 72 35 -60 54 -168 83 0
161 -257 243 104 -93 0
140 -38 -176 172 248 -117 213 -100 -61 66 0
-241 9 175 -78 -212 -107 0
-144 -235 -141 253 -68 0
-58 170 -11 -72 -143 118 153 -89 0
-213 -164 -12 -139 208 156 -145 -256 -9 -64 0
55 214 95 -125 20 137 97 0
5 -160 -81 -217 -103 150 0
-115 187 0
16 -125 186 0
-91 -192 -259 -43 0
59 -126 0
-246 -170 -111 159 -172 150 -2 0
28 -72 -228 150 0
69 93 250 88 -55 0
-111 250 0
126 -249 -258 0
259 0
